
Gurobi 9.5.0 (linux64) logging started Wed Nov  8 21:41:23 2023

Set parameter LogFile to value "/lustre1/scratch/348/vsc34888/JointResearch/05.Models/06.Benchmarking/G.Representative_days_based_on_Line_Benefit_NN_OC_fy_2/RTS24_ByStages_nc70/openStarNet_RTS24_ByStages_nc70.log"
Set parameter Method to value 2
Set parameter MIPFocus to value 1
Set parameter Presolve to value 2
Set parameter RINS to value 100
Set parameter MIPGap to value 0.01
Set parameter Threads to value 36
Set parameter TimeLimit to value 604800
Set parameter IterationLimit to value 760000000
Gurobi Optimizer version 9.5.0 build v9.5.0rc5 (linux64)
Thread count: 36 physical cores, 36 logical processors, using up to 36 threads
Optimize a model with 31153 rows, 17992 columns and 85857 nonzeros
Model fingerprint: 0x4b48ba4f
Variable types: 17953 continuous, 39 integer (39 binary)
Coefficient statistics:
  Matrix range     [1e-03, 2e+03]
  Objective range  [1e+00, 1e+00]
  Bounds range     [4e-04, 3e+00]
  RHS range        [4e-04, 3e+00]
Presolve removed 15193 rows and 7682 columns
Presolve time: 0.15s
Presolved: 15960 rows, 10310 columns, 55561 nonzeros
Variable types: 10271 continuous, 39 integer (39 binary)
Found heuristic solution: objective 153.0146305
Root relaxation presolved: 15960 rows, 10310 columns, 55561 nonzeros

Root barrier log...

Ordering time: 0.01s

Barrier statistics:
 Dense cols : 39
 AA' NZ     : 1.181e+05
 Factor NZ  : 3.821e+05 (roughly 14 MB of memory)
 Factor Ops : 1.143e+07 (less than 1 second per iteration)
 Threads    : 36

                  Objective                Residual
Iter       Primal          Dual         Primal    Dual     Compl     Time
   0   6.37405583e+05 -1.27281920e+08  4.60e+00 4.14e+02  1.15e+04     0s
   1   7.34890889e+04 -3.49808263e+07  4.26e-01 7.30e-09  1.48e+03     0s
   2   2.32867996e+04 -5.24738927e+06  1.24e-02 1.85e-09  1.66e+02     0s
   3   1.60687416e+04 -2.46023250e+05  9.97e-13 5.41e-11  8.06e+00     0s
   4   3.34253487e+03 -3.71108999e+04  1.01e-12 6.22e-12  1.24e+00     0s
   5   1.21658130e+03 -9.48952493e+03  6.40e-13 1.58e-12  3.29e-01     0s
   6   5.56763173e+02 -2.75607109e+03  3.95e-13 9.09e-13  1.02e-01     0s
   7   3.39025860e+02 -9.63860596e+02  3.93e-13 1.82e-12  4.01e-02     0s
   8   2.05354513e+02 -2.19486431e+02  3.34e-13 1.82e-12  1.31e-02     0s
   9   1.57748278e+02 -2.43722395e+01  2.43e-13 1.82e-12  5.60e-03     0s
  10   1.17277889e+02  5.01730427e+01  5.61e-13 1.82e-12  2.06e-03     0s
  11   9.97629939e+01  8.00887227e+01  8.33e-13 1.82e-12  6.05e-04     0s
  12   9.63531790e+01  8.74200236e+01  1.04e-12 1.82e-12  2.75e-04     0s
  13   9.46167018e+01  9.00006631e+01  3.40e-12 1.82e-12  1.42e-04     1s
  14   9.34958698e+01  9.05801044e+01  9.92e-12 9.09e-13  8.97e-05     1s
  15   9.29154841e+01  9.13273482e+01  7.71e-12 1.82e-12  4.88e-05     1s
  16   9.24432710e+01  9.17301735e+01  8.54e-12 1.82e-12  2.19e-05     1s
  17   9.22865892e+01  9.18530018e+01  1.68e-11 9.09e-13  1.33e-05     1s
  18   9.21247490e+01  9.19983834e+01  4.50e-11 2.73e-12  3.89e-06     1s
  19   9.20770970e+01  9.20395854e+01  5.52e-11 1.82e-12  1.15e-06     1s
  20   9.20603704e+01  9.20550481e+01  1.06e-10 1.82e-12  1.64e-07     1s
  21   9.20571552e+01  9.20568083e+01  3.22e-09 1.82e-12  1.07e-08     1s
  22   9.20569961e+01  9.20569907e+01  3.77e-09 1.82e-12  1.66e-10     1s
  23   9.20569946e+01  9.20569946e+01  1.08e-10 1.82e-12  4.46e-15     1s

Barrier solved model in 23 iterations and 0.61 seconds (0.52 work units)
Optimal objective 9.20569946e+01


Root relaxation: objective 9.205699e+01, 1321 iterations, 0.39 seconds (0.26 work units)

    Nodes    |    Current Node    |     Objective Bounds      |     Work
 Expl Unexpl |  Obj  Depth IntInf | Incumbent    BestBd   Gap | It/Node Time

     0     0   92.05699    0   12  153.01463   92.05699  39.8%     -    0s
H    0     0                     107.2441371   92.05699  14.2%     -    1s
     0     0   94.31342    0   12  107.24414   94.31342  12.1%     -    1s
     0     0   94.33660    0   12  107.24414   94.33660  12.0%     -    1s
     0     0   95.18149    0   10  107.24414   95.18149  11.2%     -    2s
     0     0   95.18613    0   11  107.24414   95.18613  11.2%     -    2s
     0     0   95.18680    0   11  107.24414   95.18680  11.2%     -    2s
     0     0   95.18680    0   11  107.24414   95.18680  11.2%     -    2s
     0     0   95.25498    0   10  107.24414   95.25498  11.2%     -    2s
     0     0   95.33288    0   11  107.24414   95.33288  11.1%     -    2s
     0     0   95.39831    0   11  107.24414   95.39831  11.0%     -    2s
     0     0   95.40044    0   11  107.24414   95.40044  11.0%     -    2s
     0     0   95.40125    0   11  107.24414   95.40125  11.0%     -    2s
     0     0   95.40136    0   11  107.24414   95.40136  11.0%     -    2s
     0     0   95.42056    0   11  107.24414   95.42056  11.0%     -    3s
     0     0   95.42273    0   11  107.24414   95.42273  11.0%     -    3s
     0     0   95.42362    0   11  107.24414   95.42362  11.0%     -    3s
     0     0   95.42385    0   11  107.24414   95.42385  11.0%     -    3s
     0     0   95.42646    0   11  107.24414   95.42646  11.0%     -    4s
H    0     0                     103.3221289   95.42646  7.64%     -    6s
     0     2   95.42646    0   11  103.32213   95.42646  7.64%     -    7s

Cutting planes:
  Gomory: 4
  Implied bound: 23
  MIR: 440
  Relax-and-lift: 8

Explored 188 nodes (41301 simplex iterations) in 9.11 seconds (9.23 work units)
Thread count was 36 (of 36 available processors)

Solution count 3: 103.322 107.244 153.015 

Optimal solution found (tolerance 1.00e-02)
Best objective 1.033221288887e+02, best bound 1.026898979877e+02, gap 0.6119%

Gurobi 9.5.0 (linux64) logging started Wed Nov  8 21:41:36 2023

Set parameter LogFile to value "/lustre1/scratch/348/vsc34888/JointResearch/05.Models/06.Benchmarking/G.Representative_days_based_on_Line_Benefit_NN_OC_fy_2/RTS24_ByStages_nc70/openStarNet_RTS24_ByStages_nc70.log"
Set parameter Method to value 2
Set parameter MIPFocus to value 1
Set parameter Presolve to value 2
Set parameter RINS to value 100
Set parameter MIPGap to value 0.01
Set parameter Threads to value 36
Set parameter TimeLimit to value 604800
Set parameter IterationLimit to value 760000000
No parameters matching 'relax_integrality' found
Gurobi Optimizer version 9.5.0 build v9.5.0rc5 (linux64)
Thread count: 36 physical cores, 36 logical processors, using up to 36 threads
Optimize a model with 31153 rows, 17953 columns and 74898 nonzeros
Model fingerprint: 0xd33c5c8d
Coefficient statistics:
  Matrix range     [1e-03, 2e+03]
  Objective range  [1e+00, 1e+00]
  Bounds range     [4e-04, 3e+00]
  RHS range        [4e-04, 3e+01]
Presolve removed 24645 rows and 8386 columns
Presolve time: 0.03s
Presolved: 6508 rows, 9707 columns, 23983 nonzeros

Ordering time: 0.00s

Barrier statistics:
 AA' NZ     : 1.676e+04
 Factor NZ  : 7.139e+04 (roughly 6 MB of memory)
 Factor Ops : 1.086e+06 (less than 1 second per iteration)
 Threads    : 36

                  Objective                Residual
Iter       Primal          Dual         Primal    Dual     Compl     Time
   0   7.29209461e+05 -3.86319219e+08  6.11e+00 7.15e+02  4.72e+04     0s
   1   9.06956355e+04 -6.19271086e+07  6.01e-01 3.44e-11  5.11e+03     0s
   2   4.35997093e+04 -6.72704066e+06  1.59e-01 3.10e-11  5.15e+02     0s
   3   2.49129251e+04 -7.21329890e+05  6.03e-03 1.96e-11  4.55e+01     0s
   4   1.17211495e+04 -9.86927335e+04  1.37e-04 1.38e-11  6.63e+00     0s
   5   5.83067271e+03 -3.00023176e+04  4.81e-05 1.23e-11  2.15e+00     0s
   6   1.76599855e+03 -8.77806264e+03  1.01e-05 7.28e-12  6.32e-01     0s
   7   6.76778516e+02 -2.07435797e+03  2.40e-06 3.64e-12  1.65e-01     0s
   8   4.83408079e+02 -7.17629474e+02  1.43e-06 7.28e-12  7.20e-02     0s
   9   2.72023162e+02 -1.34831019e+02  5.93e-07 7.28e-12  2.44e-02     0s
  10   1.48893368e+02  4.37355622e+01  1.30e-07 7.28e-12  6.31e-03     0s
  11   1.22411419e+02  8.06534932e+01  5.05e-08 1.46e-11  2.50e-03     0s
  12   1.13106832e+02  9.32229109e+01  2.51e-08 7.28e-12  1.19e-03     0s
  13   1.08362820e+02  9.87929488e+01  1.27e-08 1.46e-11  5.74e-04     0s
  14   1.06108670e+02  1.01865115e+02  6.95e-09 7.28e-12  2.55e-04     0s
  15   1.04432799e+02  1.02819476e+02  2.74e-09 7.28e-12  9.68e-05     0s
  16   1.03447230e+02  1.03228701e+02  2.91e-10 1.46e-11  1.31e-05     0s
  17   1.03355504e+02  1.03275896e+02  7.40e-11 7.28e-12  4.77e-06     0s
  18   1.03322637e+02  1.03316752e+02  2.38e-11 7.28e-12  3.53e-07     0s
  19   1.03322156e+02  1.03322016e+02  6.68e-10 7.28e-12  8.40e-09     0s
  20   1.03322129e+02  1.03322129e+02  3.63e-12 3.64e-12  8.42e-12     0s
  21   1.03322129e+02  1.03322129e+02  2.78e-12 3.64e-12  3.44e-17     0s

Barrier solved model in 21 iterations and 0.16 seconds (0.10 work units)
Optimal objective 1.03322129e+02

Crossover log...

     838 DPushes remaining with DInf 0.0000000e+00                 0s
       0 DPushes remaining with DInf 0.0000000e+00                 0s

     327 PPushes remaining with PInf 0.0000000e+00                 0s
       0 PPushes remaining with PInf 0.0000000e+00                 0s

  Push phase complete: Pinf 0.0000000e+00, Dinf 1.4984300e-12      0s

Iteration    Objective       Primal Inf.    Dual Inf.      Time
     358    1.0332213e+02   0.000000e+00   0.000000e+00      0s

Use crossover to convert LP symmetric solution to basic solution...
Crossover log...

       0 DPushes remaining with DInf 0.0000000e+00                 0s

     222 PPushes remaining with PInf 0.0000000e+00                 0s
       0 PPushes remaining with PInf 0.0000000e+00                 0s

  Push phase complete: Pinf 0.0000000e+00, Dinf 1.7672066e-12      0s

Iteration    Objective       Primal Inf.    Dual Inf.      Time
     604    1.0332213e+02   0.000000e+00   0.000000e+00      0s

Solved in 604 iterations and 0.23 seconds (0.13 work units)
Optimal objective  1.033221289e+02
